param set_len = 26;
param target_sum = 3560013254;
param values := [0] 244094077 [1] 182718840 [2] 110084240 [3] 465735641 [4] 379316096 [5] 515253322 [6] 284487554 [7] 220008962 [8] 492801374 [9] 510202346 [10] 372849600 [11] 342398697 [12] 506103016 [13] 515707649 [14] 371585093 [15] 399030066 [16] 308239015 [17] 291723386 [18] 126072605 [19] 35642846 [20] 387143350 [21] 221450209 [22] 41014477 [23] 112644444 [24] 286435141 [25] 295342723 ;
